<number of tasks>
20

<cycle time>
1000

<order strength>
0,189


<task times>
1 293
2 174
3 547
4 32
5 179
6 157
7 393
8 141
9 148
10 136
11 90
12 454
13 80
14 155
15 538
16 379
17 202
18 135
19 429
20 361

<precedence relations>
1,7
2,8
3,6
4,9
6,10
7,12
8,11
9,13
9,14
10,16
11,15
15,17
16,18
16,19
16,20

<end>
